138
0 119 30 73 14 135 26 114 83 70 
91 42 27 76 8 24 58 81 79 124 
100 4 112 132 113 41 52 102 110 6 
2 29 49 105 77 111 53 44 109 74 
120 57 5 82 122 62 12 75 31 117 
11 103 20 13 51 7 137 118 101 3 
64 129 48 22 126 108 56 16 32 46 
59 116 134 96 92 88 43 40 23 33 
93 36 90 18 123 87 54 55 63 125 
86 15 38 127 85 34 21 121 136 60 
130 69 10 106 115 71 131 133 1 99 
80 39 9 47 35 25 97 61 50 66 
94 104 67 95 17 37 45 72 78 128 
19 28 89 68 84 65 98 107 
